r = [
0,13,146,61,51,113,47,3,30,126,7,36,120,84,58,72,166,61,6,186,153,125,139,171,6,81,0
];
p = [
0,13,12,18,28,17,24,13,17,10,12,18,13,30,16,13,26,11,10,17,3,14,21,2,6,7,0
];
e = [
0,5,9,3,5,8,11,20,16,16,18,7,12,10,15,13,14,14,9,4,15,13,14,16,2,12,0
];
d = [
0,118,384,274,262,271,170,265,293,286,190,134,379,214,229,343,389,317,215,400,331,327,298,306,140,239,409
];
d_bar = [
0,125,390,283,276,280,182,272,302,291,196,143,386,229,237,350,402,323,220,409,333,334,309,307,143,243,409
];
w = [
0,0.714285714,1.5,0.333333333,0.357142857,0.888888889,0.916666667,2.857142857,1.777777778,3.2,3,0.777777778,1.714285714,0.666666667,1.875,1.857142857,1.076923077,2.333333333,1.8,0.444444444,7.5,1.857142857,1.272727273,16,0.666666667,3,0
];
